6
Lattice="16.0 0.0 0.0 0.0 16.0 0.0 0.0 0.0 16.0" Properties=species:S:1:pos:R:3:initial_magmoms:R:1:forces:R:3:magmoms:R:1 energy=-10.855361 dipole="0.000917 0.006248 0.0" pbc="T T T"
Ag       5.29938900       5.51379500       8.00000000      -0.00000000      -0.00662000       0.00372000       0.00000000      -0.00000000
Ag       7.98046000       5.46479100       8.00000000      -0.00000000      -0.00566000       0.00750000       0.00000000      -0.00000000
Ag      10.66530500       5.52482800       8.00000000       0.00000000      -0.00558000      -0.00372000      -0.00000000       0.00000000
Ag       6.58375000       7.86866700       8.00000000       0.00000000       0.00159000      -0.00139000       0.00000000       0.00000000
Ag       9.36978600       7.87624000       8.00000000       0.00000000      -0.00396000      -0.00109000      -0.00000000       0.00000000
Ag       7.96114200      10.16485000       8.00000000       0.00000000       0.00076000      -0.00318000       0.00000000       0.00000000
