6
Lattice="16.0 0.0 0.0 0.0 16.0 0.0 0.0 0.0 16.0" Properties=species:S:1:pos:R:3:initial_magmoms:R:1:forces:R:3:magmoms:R:1 energy=-10.621494 dipole="2e-06 -0.000157 -0.09895" pbc="T T T"
Ag       6.59100800       5.59587800       7.13902000      -0.00000000       0.00001000       0.00063000      -0.00188000      -0.00000000
Ag       9.40899200       5.59587800       7.13902000       0.00000000      -0.00001000       0.00063000      -0.00188000       0.00000000
Ag       5.71575700       8.27292000       7.16109200       0.00000000       0.00172000       0.00213000      -0.00003000       0.00000000
Ag       8.00000000       7.52980800       8.35841400      -0.00000000       0.00000000       0.00511000      -0.00197000      -0.00000000
Ag      10.28424300       8.27292000       7.16109200      -0.00000000      -0.00172000       0.00213000      -0.00003000      -0.00000000
Ag       8.00000000       9.91983300       7.12945700       0.00000000       0.00000000       0.00362000       0.00116000       0.00000000
